56 47 41 10 72 54 29 66 26 83 14 80 56 69 62 79 87 41 95 77 96 31 98 75 75 
48 84 13 72 42 71 21 85 91 14 27 77 46 20 34 42 52 95 72 47 66 21 14 39 44 
54 64 46 37 31 62 52 33 87 35 73 64 32 11 96 96 10 20 83 23 48 62 58 91 39 
52 65 58 63 46 66 72 95 42 29 73 36 77 35 47 25 80 81 87 62 41 40 54 40 77 
721.00
